p cnf 29 76
a 16 28 0
e 1 2 3 4 5 6 7 8 9 10 11 12 13 14 15 17 18 19 20 21 22 23 24 25 26 27 29 0
-3 1 0
-3 2 0
-1 -2 3 0
-5 4 0
-5 -4 0
-7 5 0
-7 -6 0
-5 6 7 0
-8 6 -9 0
8 -6 -9 0
-8 -6 9 0
8 6 9 0
-10 -9 0
-10 -8 0
9 8 10 0
-10 -11 -12 0
10 11 -12 0
-10 11 12 0
10 -11 12 0
13 12 0
13 9 0
-12 -9 -13 0
8 -14 -15 0
-8 14 -15 0
8 14 15 0
-8 -14 15 0
-13 -15 -16 0
13 15 -16 0
-13 15 16 0
13 -15 16 0
-7 -16 -17 0
7 16 -17 0
-7 16 17 0
7 -16 17 0
-3 -17 -18 0
3 17 -18 0
-3 17 18 0
3 -17 18 0
-20 11 0
-20 -7 0
-11 7 20 0
-21 19 0
-21 -20 0
-19 20 21 0
22 -15 0
22 15 0
23 -11 0
23 -11 0
11 -23 0
-24 22 0
-24 23 0
-22 -23 24 0
25 -11 0
25 -14 0
11 14 -25 0
-26 -25 0
-26 12 0
25 -12 26 0
-27 24 0
-27 -26 0
-24 26 27 0
-28 21 0
-28 -27 0
-21 27 28 0
-18 28 -29 0
18 -28 -29 0
-18 -28 29 0
18 28 29 0
-28 25 4 2 0
19 -9 4 18 0
-12 23 4 0
7 20 14 0
8 24 -16 22 17 -13 0
-28 -13 27 16 0
7 29 -17 -8 -24 6 0
29 0
